(declare-const container String)
(declare-const target String)
(declare-const replacement String)
(assert (< (str.len target) (str.len container)))
(assert (> (str.len replacement) 2))
(define-fun replaced () String (str.replaceall container target replacement))
(assert (= replaced "axydefaxydef"))
(assert (not (= replaced container)))
(check-sat)
